data;
set WEIGHTS := x0 x1 x2 x3 x4 x5 x6 x7 x8 x9 x10 x11 x12 x13 x14 x15 x16 x17 x18 x19 x20 x21 x22 x23 x24 x25;
param:  cost :=
  x0  992
  x1  565
  x2  211
  x3  288
  x4  962
  x5  862
  x6  154
  x7  786
  x8  344
  x9  704
  x10  378
  x11  85
  x12  190
  x13  168
  x14  444
  x15  550
  x16  234
  x17  306
  x18  635
  x19  842
  x20  530
  x21  751
  x22  115
  x23  709
  x24  68
  x25  183;
param cap := 6501;